TC_ILP/hal_1.5.lp
Minimize
M1 + M2
Subject To
x0,5 + x0,6 + x0,7 + x0,8 = 1
x1,5 + x1,6 + x1,7 + x1,8 = 1
x2,3 + x2,4 + x2,5 + x2,6 = 1
x3,2 + x3,3 + x3,4 + x3,5 = 1
x4,1 + x4,2 + x4,3 + x4,4 = 1
x5,4 + x5,5 + x5,6 + x5,7 + x5,8 = 1
x6,2 + x6,3 + x6,4 + x6,5 + x6,6 = 1
x7,2 + x7,3 + x7,4 + x7,5 + x7,6 + x7,7 + x7,8 = 1
x8,1 + x8,2 + x8,3 + x8,4 + x8,5 + x8,6 + x8,7 = 1
x9,2 + x9,3 + x9,4 + x9,5 + x9,6 + x9,7 + x9,8 + x9,9 = 1
x10,1 + x10,2 + x10,3 + x10,4 + x10,5 + x10,6 + x10,7 + x10,8 = 1
x4,1 + x8,1 + x10,1 - M2 <= 0
x3,2 + x4,2 + x8,2 + x9,2 + x10,2 - M2 <= 0
x6,2 + x6,1 + x7,2 + x7,1 - M1 <= 0
x3,3 + x4,3 + x8,3 + x9,3 + x10,3 - M2 <= 0
x2,3 + x2,2 + x6,3 + x6,2 + x7,3 + x7,2 - M1 <= 0
x3,4 + x4,4 + x8,4 + x9,4 + x10,4 - M2 <= 0
x2,4 + x2,3 + x5,4 + x5,3 + x6,4 + x6,3 + x7,4 + x7,3 - M1 <= 0
x3,5 + x8,5 + x9,5 + x10,5 - M2 <= 0
x0,5 + x0,4 + x1,5 + x1,4 + x2,5 + x2,4 + x5,5 + x5,4 + x6,5 + x6,4 + x7,5 + x7,4 - M1 <= 0
x8,6 + x9,6 + x10,6 - M2 <= 0
x0,6 + x0,5 + x1,6 + x1,5 + x2,6 + x2,5 + x5,6 + x5,5 + x6,6 + x6,5 + x7,6 + x7,5 - M1 <= 0
x8,7 + x9,7 + x10,7 - M2 <= 0
x0,7 + x0,6 + x1,7 + x1,6 + x2,7 + x2,6 + x5,7 + x5,6 + x6,7 + x6,6 + x7,7 + x7,6 - M1 <= 0
x9,8 + x10,8 - M2 <= 0
x0,8 + x0,7 + x1,8 + x1,7 + x5,8 + x5,7 + x7,8 + x7,7 - M1 <= 0
x0,9 + x0,8 + x1,9 + x1,8 + x5,9 + x5,8 + x7,9 + x7,8 - M1 <= 0
3 x2,3 + 4 x2,4 + 5 x2,5 + 6 x2,6 - 5 x0,5 - 6 x0,6 - 7 x0,7 - 8 x0,8 <= -2
3 x2,3 + 4 x2,4 + 5 x2,5 + 6 x2,6 - 5 x1,5 - 6 x1,6 - 7 x1,7 - 8 x1,8 <= -2
2 x3,2 + 3 x3,3 + 4 x3,4 + 5 x3,5 - 3 x2,3 - 4 x2,4 - 5 x2,5 - 6 x2,6 <= -1
1 x4,1 + 2 x4,2 + 3 x4,3 + 4 x4,4 - 2 x3,2 - 3 x3,3 - 4 x3,4 - 5 x3,5 <= -1
1 x4,1 + 2 x4,2 + 3 x4,3 + 4 x4,4 - 2 x6,2 - 3 x6,3 - 4 x6,4 - 5 x6,5 - 6 x6,6 <= -1
2 x6,2 + 3 x6,3 + 4 x6,4 + 5 x6,5 + 6 x6,6 - 4 x5,4 - 5 x5,5 - 6 x5,6 - 7 x5,7 - 8 x5,8 <= -2
1 x8,1 + 2 x8,2 + 3 x8,3 + 4 x8,4 + 5 x8,5 + 6 x8,6 + 7 x8,7 - 2 x7,2 - 3 x7,3 - 4 x7,4 - 5 x7,5 - 6 x7,6 - 7 x7,7 - 8 x7,8 <= -1
1 x10,1 + 2 x10,2 + 3 x10,3 + 4 x10,4 + 5 x10,5 + 6 x10,6 + 7 x10,7 + 8 x10,8 - 2 x9,2 - 3 x9,3 - 4 x9,4 - 5 x9,5 - 6 x9,6 - 7 x9,7 - 8 x9,8 - 9 x9,9 <= -1
Bounds
0 <= x0,5 <= 1
0 <= x0,6 <= 1
0 <= x0,7 <= 1
0 <= x0,8 <= 1
0 <= x1,5 <= 1
0 <= x1,6 <= 1
0 <= x1,7 <= 1
0 <= x1,8 <= 1
0 <= x2,3 <= 1
0 <= x2,4 <= 1
0 <= x2,5 <= 1
0 <= x2,6 <= 1
0 <= x3,2 <= 1
0 <= x3,3 <= 1
0 <= x3,4 <= 1
0 <= x3,5 <= 1
0 <= x4,1 <= 1
0 <= x4,2 <= 1
0 <= x4,3 <= 1
0 <= x4,4 <= 1
0 <= x5,4 <= 1
0 <= x5,5 <= 1
0 <= x5,6 <= 1
0 <= x5,7 <= 1
0 <= x5,8 <= 1
0 <= x6,2 <= 1
0 <= x6,3 <= 1
0 <= x6,4 <= 1
0 <= x6,5 <= 1
0 <= x6,6 <= 1
0 <= x7,2 <= 1
0 <= x7,3 <= 1
0 <= x7,4 <= 1
0 <= x7,5 <= 1
0 <= x7,6 <= 1
0 <= x7,7 <= 1
0 <= x7,8 <= 1
0 <= x8,1 <= 1
0 <= x8,2 <= 1
0 <= x8,3 <= 1
0 <= x8,4 <= 1
0 <= x8,5 <= 1
0 <= x8,6 <= 1
0 <= x8,7 <= 1
0 <= x9,2 <= 1
0 <= x9,3 <= 1
0 <= x9,4 <= 1
0 <= x9,5 <= 1
0 <= x9,6 <= 1
0 <= x9,7 <= 1
0 <= x9,8 <= 1
0 <= x9,9 <= 1
0 <= x10,1 <= 1
0 <= x10,2 <= 1
0 <= x10,3 <= 1
0 <= x10,4 <= 1
0 <= x10,5 <= 1
0 <= x10,6 <= 1
0 <= x10,7 <= 1
0 <= x10,8 <= 1
M1 >= 1
M2 >= 1
Generals
x0,5
x0,6
x0,7
x0,8
x1,5
x1,6
x1,7
x1,8
x2,3
x2,4
x2,5
x2,6
x3,2
x3,3
x3,4
x3,5
x4,1
x4,2
x4,3
x4,4
x5,4
x5,5
x5,6
x5,7
x5,8
x6,2
x6,3
x6,4
x6,5
x6,6
x7,2
x7,3
x7,4
x7,5
x7,6
x7,7
x7,8
x8,1
x8,2
x8,3
x8,4
x8,5
x8,6
x8,7
x9,2
x9,3
x9,4
x9,5
x9,6
x9,7
x9,8
x9,9
x10,1
x10,2
x10,3
x10,4
x10,5
x10,6
x10,7
x10,8
M1
M2
End
